p cnf 65 180
11 16 0 
-11 -16 0 
-11 -54 50 0 
-11 -54 24 0 
-38 -55 53 0 
-38 -55 28 0 
-16 -56 50 0 
-16 -56 29 0 
-44 -57 53 0 
-44 -57 33 0 
-11 -9 -58 24 0 
-11 -9 -58 38 0 
-11 -9 -58 -38 0 
-38 -34 -59 28 0 
-38 -34 -59 43 0 
-38 -34 -59 -43 0 
-11 -60 29 0 
-11 -60 44 0 
-11 -60 -38 0 
-38 -61 33 0 
-38 -61 49 0 
-38 -61 -43 0 
-16 -62 24 0 
-16 -62 38 0 
-16 -62 -44 0 
-44 -63 28 0 
-44 -63 43 0 
-44 -63 -49 0 
-16 -10 -64 29 0 
-16 -10 -64 44 0 
-16 -10 -64 -44 0 
-44 -36 -65 33 0 
-44 -36 -65 49 0 
-44 -36 -65 -49 0 
-1 24 0 
-11 -54 2 0 
-2 11 0 
-2 54 0 
-11 -9 -58 3 0 
-3 11 0 
-3 9 0 
-3 58 0 
-16 -62 4 0 
-4 16 0 
-4 62 0 
2 3 4 1 -24 0 
-24 28 0 
-38 -55 25 0 
-25 38 0 
-25 55 0 
-38 -34 -59 26 0 
-26 38 0 
-26 34 0 
-26 59 0 
-44 -63 27 0 
-27 44 0 
-27 63 0 
25 26 27 24 -28 0 
-5 29 0 
-16 -56 6 0 
-6 16 0 
-6 56 0 
-11 -60 7 0 
-7 11 0 
-7 60 0 
-16 -10 -64 8 0 
-8 16 0 
-8 10 0 
-8 64 0 
6 7 8 5 -29 0 
-29 33 0 
-44 -57 30 0 
-30 44 0 
-30 57 0 
-38 -61 31 0 
-31 38 0 
-31 61 0 
-44 -36 -65 32 0 
-32 44 0 
-32 36 0 
-32 65 0 
30 31 32 29 -33 0 
-9 34 0 
9 -34 0 
-34 35 0 
34 -35 0 
-10 36 0 
10 -36 0 
-36 37 0 
36 -37 0 
-11 -9 -58 12 0 
-12 11 0 
-12 9 0 
-12 58 0 
-11 -60 13 0 
-13 11 0 
-13 60 0 
12 13 -11 38 0 
-11 -9 -58 14 0 
-14 11 0 
-14 9 0 
-14 58 0 
-16 -62 15 0 
-15 16 0 
-15 62 0 
14 15 11 -38 0 
-38 -34 -59 39 0 
-39 38 0 
-39 34 0 
-39 59 0 
-38 -61 40 0 
-40 38 0 
-40 61 0 
39 40 -38 43 0 
-38 -34 -59 41 0 
-41 38 0 
-41 34 0 
-41 59 0 
-44 -63 42 0 
-42 44 0 
-42 63 0 
41 42 38 -43 0 
-16 -62 17 0 
-17 16 0 
-17 62 0 
-16 -10 -64 18 0 
-18 16 0 
-18 10 0 
-18 64 0 
17 18 -16 44 0 
-11 -60 19 0 
-19 11 0 
-19 60 0 
-16 -10 -64 20 0 
-20 16 0 
-20 10 0 
-20 64 0 
19 20 16 -44 0 
-44 -63 45 0 
-45 44 0 
-45 63 0 
-44 -36 -65 46 0 
-46 44 0 
-46 36 0 
-46 65 0 
45 46 -44 49 0 
-38 -61 47 0 
-47 38 0 
-47 61 0 
-44 -36 -65 48 0 
-48 44 0 
-48 36 0 
-48 65 0 
47 48 44 -49 0 
-21 50 0 
-11 -54 22 0 
-22 11 0 
-22 54 0 
-16 -56 23 0 
-23 16 0 
-23 56 0 
22 23 21 -50 0 
-50 53 0 
-38 -55 51 0 
-51 38 0 
-51 55 0 
-44 -57 52 0 
-52 44 0 
-52 57 0 
51 52 50 -53 0 
-58 -60 0 
-58 -62 0 
-59 -61 0 
-59 -63 0 
-60 -62 0 
-60 -64 0 
-61 -63 0 
-61 -65 0 
-62 -64 0 
-63 -65 0 
